147
10000
3
1648
1157
1569
1859
7
4462
3802
3314
1757
1636
3032
4229
396
1073
1139
3437
4407
1539
293
920
2058
282
36
3887
952
2207
2892
2500
148
2618
325
1001
3720
838
4837
3057
1718
341
4646
1498
441
703
863
371
3109
1014
3969
1903
1854
1968
2213
2695
1094
4464
2754
3772
1368
4811
516
1106
1796
525
3170
1159
1464
3893
2143
3274
2153
417
1662
3069
528
357
2557
919
1198
2101
843
2629
2530
80
79
1530
3899
1039
3712
1131
4450
4377
1759
1142
1424
149
653
2932
3895
4394
4426
447
1469
1584
1218
1864
412
3613
285
2194
1629
3278
2856
4529
2260
554
3222
4180
3878
449
248
4543
4157
4572
1128
1121
4648
2603
1711
3698
4196
1613
4744
3472
389
962
704
380
1637
813
3
600
1847
3872
650
960
2257
865
